(set-logic QF_FPBV)
(set-option :produce-models true)
(set-info :source |Random FP created by PyMPF|)
(set-info :category random)
(set-info :status sat)
;; fp.from.sbv(BitVec 64)
(declare-const x (_ BitVec 64))
(assert (= x #b0100011111000001101001011100000110101010011011111101100011110011))
;; x should be 5170596098404767987
(declare-const r Float32)
(assert (= r ((_ to_fp 8 24) RNA x)))
(assert (fp.eq r ((_ to_fp 8 24) #x5E8F834C)))
(check-sat)
(exit)
